p cnf 580 1970
c p weight 232 -1 0
c p weight -232 1 0
c p weight 234 6.12323399573676603586882014729198302312846062338790031898128063403419218957424163818359375E-17 0
c p weight -234 1 0
c p weight 235 1 0
c p weight -235 1 0
c p weight 236 -1 0
c p weight -236 1 0
c p weight 238 -1 0
c p weight -238 1 0
c p weight 241 -1 0
c p weight -241 1 0
c p weight 244 -1 0
c p weight -244 1 0
c p weight 247 -1 0
c p weight -247 1 0
c p weight 250 -1 0
c p weight -250 1 0
c p weight 253 -1 0
c p weight -253 1 0
c p weight 256 -1 0
c p weight -256 1 0
c p weight 259 -1 0
c p weight -259 1 0
c p weight 262 -1 0
c p weight -262 1 0
c p weight 265 -1 0
c p weight -265 1 0
c p weight 268 -1 0
c p weight -268 1 0
c p weight 271 -1 0
c p weight -271 1 0
c p weight 274 -1 0
c p weight -274 1 0
c p weight 277 -1 0
c p weight -277 1 0
c p weight 280 -1 0
c p weight -280 1 0
c p weight 283 -1 0
c p weight -283 1 0
c p weight 286 -1 0
c p weight -286 1 0
c p weight 289 -1 0
c p weight -289 1 0
c p weight 292 -1 0
c p weight -292 1 0
c p weight 295 -1 0
c p weight -295 1 0
c p weight 298 -1 0
c p weight -298 1 0
c p weight 301 -1 0
c p weight -301 1 0
c p weight 304 -1 0
c p weight -304 1 0
c p weight 307 -1 0
c p weight -307 1 0
c p weight 310 -1 0
c p weight -310 1 0
c p weight 313 -1 0
c p weight -313 1 0
c p weight 316 -1 0
c p weight -316 1 0
c p weight 319 -1 0
c p weight -319 1 0
c p weight 322 -1 0
c p weight -322 1 0
c p weight 325 -1 0
c p weight -325 1 0
c p weight 328 -1 0
c p weight -328 1 0
c p weight 331 -1 0
c p weight -331 1 0
c p weight 334 -1 0
c p weight -334 1 0
c p weight 337 -1 0
c p weight -337 1 0
c p weight 340 -1 0
c p weight -340 1 0
c p weight 343 -1 0
c p weight -343 1 0
c p weight 346 -1 0
c p weight -346 1 0
c p weight 349 -1 0
c p weight -349 1 0
c p weight 352 -1 0
c p weight -352 1 0
c p weight 355 -1 0
c p weight -355 1 0
c p weight 358 -1 0
c p weight -358 1 0
c p weight 361 -1 0
c p weight -361 1 0
c p weight 364 -1 0
c p weight -364 1 0
c p weight 367 -1 0
c p weight -367 1 0
c p weight 370 -1 0
c p weight -370 1 0
c p weight 373 -1 0
c p weight -373 1 0
c p weight 376 -1 0
c p weight -376 1 0
c p weight 379 -1 0
c p weight -379 1 0
c p weight 382 -1 0
c p weight -382 1 0
c p weight 385 -1 0
c p weight -385 1 0
c p weight 388 -1 0
c p weight -388 1 0
c p weight 391 -1 0
c p weight -391 1 0
c p weight 394 -1 0
c p weight -394 1 0
c p weight 397 -1 0
c p weight -397 1 0
c p weight 400 -1 0
c p weight -400 1 0
c p weight 403 -1 0
c p weight -403 1 0
c p weight 406 -1 0
c p weight -406 1 0
c p weight 409 -1 0
c p weight -409 1 0
c p weight 412 -1 0
c p weight -412 1 0
c p weight 415 -1 0
c p weight -415 1 0
c p weight 418 -1 0
c p weight -418 1 0
c p weight 421 -1 0
c p weight -421 1 0
c p weight 424 -1 0
c p weight -424 1 0
c p weight 427 -1 0
c p weight -427 1 0
c p weight 430 -1 0
c p weight -430 1 0
c p weight 433 -1 0
c p weight -433 1 0
c p weight 436 -1 0
c p weight -436 1 0
c p weight 439 -1 0
c p weight -439 1 0
c p weight 442 -1 0
c p weight -442 1 0
c p weight 445 -1 0
c p weight -445 1 0
c p weight 448 -1 0
c p weight -448 1 0
c p weight 451 -1 0
c p weight -451 1 0
c p weight 454 -1 0
c p weight -454 1 0
c p weight 457 -1 0
c p weight -457 1 0
c p weight 460 -1 0
c p weight -460 1 0
c p weight 463 -1 0
c p weight -463 1 0
c p weight 466 -1 0
c p weight -466 1 0
c p weight 469 -1 0
c p weight -469 1 0
c p weight 472 -1 0
c p weight -472 1 0
c p weight 475 -1 0
c p weight -475 1 0
c p weight 478 -1 0
c p weight -478 1 0
c p weight 481 -1 0
c p weight -481 1 0
c p weight 484 -1 0
c p weight -484 1 0
c p weight 487 -1 0
c p weight -487 1 0
c p weight 490 -1 0
c p weight -490 1 0
c p weight 493 -1 0
c p weight -493 1 0
c p weight 496 -1 0
c p weight -496 1 0
c p weight 499 -1 0
c p weight -499 1 0
c p weight 502 -1 0
c p weight -502 1 0
c p weight 505 -1 0
c p weight -505 1 0
c p weight 508 -1 0
c p weight -508 1 0
c p weight 511 -1 0
c p weight -511 1 0
c p weight 514 -1 0
c p weight -514 1 0
c p weight 517 -1 0
c p weight -517 1 0
c p weight 520 -1 0
c p weight -520 1 0
c p weight 523 -1 0
c p weight -523 1 0
c p weight 526 -1 0
c p weight -526 1 0
c p weight 529 -1 0
c p weight -529 1 0
c p weight 532 -1 0
c p weight -532 1 0
c p weight 535 -1 0
c p weight -535 1 0
c p weight 538 -1 0
c p weight -538 1 0
c p weight 541 -1 0
c p weight -541 1 0
c p weight 544 -1 0
c p weight -544 1 0
c p weight 547 -1 0
c p weight -547 1 0
c p weight 550 -1 0
c p weight -550 1 0
c p weight 553 -1 0
c p weight -553 1 0
c p weight 556 -1 0
c p weight -556 1 0
c p weight 559 -1 0
c p weight -559 1 0
c p weight 562 -1 0
c p weight -562 1 0
c p weight 565 -1 0
c p weight -565 1 0
c p weight 568 -1 0
c p weight -568 1 0
c p weight 571 -1 0
c p weight -571 1 0
c p weight 574 -1 0
c p weight -574 1 0
c p weight 577 -1 0
c p weight -577 1 0
c p weight 580 -1 0
c p weight -580 1 0
-229 0
-227 0
-225 0
-223 0
-221 0
-219 0
-217 0
-215 0
-213 0
-211 0
-209 0
-207 0
-205 0
-203 0
-201 0
-199 0
-197 0
-195 0
-193 0
-191 0
-189 0
-187 0
-185 0
-183 0
-181 0
-179 0
-177 0
-175 0
-173 0
-171 0
-169 0
-167 0
-165 0
-163 0
-161 0
-159 0
-157 0
-155 0
-153 0
-151 0
-149 0
-147 0
-145 0
-143 0
-141 0
-139 0
-137 0
-135 0
-133 0
-131 0
-129 0
-127 0
-125 0
-123 0
-121 0
-119 0
-117 0
-115 0
-113 0
-111 0
-109 0
-107 0
-105 0
-103 0
-101 0
-99 0
-97 0
-95 0
-93 0
-91 0
-89 0
-87 0
-85 0
-83 0
-81 0
-79 0
-77 0
-75 0
-73 0
-71 0
-69 0
-67 0
-65 0
-63 0
-61 0
-59 0
-57 0
-55 0
-53 0
-51 0
-49 0
-47 0
-45 0
-43 0
-41 0
-39 0
-37 0
-35 0
-33 0
-31 0
-29 0
-27 0
-25 0
-23 0
-21 0
-19 0
-17 0
-15 0
-13 0
-11 0
-9 0
-7 0
-5 0
-3 0
-1 0
231 229 -230 0
231 -229 230 0
-231 229 230 0
-231 -229 -230 0
-232 229 0
-232 230 0
232 -229 -230 0
233 -229 231 0
-233 229 231 0
-234 231 0
233 -234 -229 0
-233 -234 229 0
233 234 229 -231 0
-233 234 -229 -231 0
-235 231 0
233 -235 229 0
-233 -235 -229 0
233 235 -229 -231 0
-233 235 229 -231 0
-236 233 0
-236 231 0
-236 -229 0
236 -233 229 -231 0
237 233 -231 0
237 -233 231 0
-237 233 231 0
-237 -233 -231 0
-238 233 0
-238 231 0
238 -233 -231 0
239 233 -227 0
239 -233 227 0
-239 233 227 0
-239 -233 -227 0
240 237 -228 0
240 -237 228 0
-240 237 228 0
-240 -237 -228 0
-241 233 0
-241 228 0
-241 227 -237 0
-241 -227 237 0
241 -233 227 237 -228 0
241 -233 -227 -237 -228 0
242 239 -225 0
242 -239 225 0
-242 239 225 0
-242 -239 -225 0
243 228 -226 0
243 -228 226 0
-243 228 226 0
-243 -228 -226 0
-244 239 0
-244 226 0
-244 225 -228 0
-244 -225 228 0
244 -239 225 228 -226 0
244 -239 -225 -228 -226 0
245 242 -223 0
245 -242 223 0
-245 242 223 0
-245 -242 -223 0
246 226 -224 0
246 -226 224 0
-246 226 224 0
-246 -226 -224 0
-247 242 0
-247 224 0
-247 223 -226 0
-247 -223 226 0
247 -242 223 226 -224 0
247 -242 -223 -226 -224 0
248 245 -221 0
248 -245 221 0
-248 245 221 0
-248 -245 -221 0
249 224 -222 0
249 -224 222 0
-249 224 222 0
-249 -224 -222 0
-250 245 0
-250 222 0
-250 221 -224 0
-250 -221 224 0
250 -245 221 224 -222 0
250 -245 -221 -224 -222 0
251 248 -219 0
251 -248 219 0
-251 248 219 0
-251 -248 -219 0
252 222 -220 0
252 -222 220 0
-252 222 220 0
-252 -222 -220 0
-253 248 0
-253 220 0
-253 219 -222 0
-253 -219 222 0
253 -248 219 222 -220 0
253 -248 -219 -222 -220 0
254 251 -217 0
254 -251 217 0
-254 251 217 0
-254 -251 -217 0
255 220 -218 0
255 -220 218 0
-255 220 218 0
-255 -220 -218 0
-256 251 0
-256 218 0
-256 217 -220 0
-256 -217 220 0
256 -251 217 220 -218 0
256 -251 -217 -220 -218 0
257 254 -215 0
257 -254 215 0
-257 254 215 0
-257 -254 -215 0
258 218 -216 0
258 -218 216 0
-258 218 216 0
-258 -218 -216 0
-259 254 0
-259 216 0
-259 215 -218 0
-259 -215 218 0
259 -254 215 218 -216 0
259 -254 -215 -218 -216 0
260 257 -213 0
260 -257 213 0
-260 257 213 0
-260 -257 -213 0
261 216 -214 0
261 -216 214 0
-261 216 214 0
-261 -216 -214 0
-262 257 0
-262 214 0
-262 213 -216 0
-262 -213 216 0
262 -257 213 216 -214 0
262 -257 -213 -216 -214 0
263 260 -211 0
263 -260 211 0
-263 260 211 0
-263 -260 -211 0
264 214 -212 0
264 -214 212 0
-264 214 212 0
-264 -214 -212 0
-265 260 0
-265 212 0
-265 211 -214 0
-265 -211 214 0
265 -260 211 214 -212 0
265 -260 -211 -214 -212 0
266 263 -209 0
266 -263 209 0
-266 263 209 0
-266 -263 -209 0
267 212 -210 0
267 -212 210 0
-267 212 210 0
-267 -212 -210 0
-268 263 0
-268 210 0
-268 209 -212 0
-268 -209 212 0
268 -263 209 212 -210 0
268 -263 -209 -212 -210 0
269 266 -207 0
269 -266 207 0
-269 266 207 0
-269 -266 -207 0
270 210 -208 0
270 -210 208 0
-270 210 208 0
-270 -210 -208 0
-271 266 0
-271 208 0
-271 207 -210 0
-271 -207 210 0
271 -266 207 210 -208 0
271 -266 -207 -210 -208 0
272 269 -205 0
272 -269 205 0
-272 269 205 0
-272 -269 -205 0
273 208 -206 0
273 -208 206 0
-273 208 206 0
-273 -208 -206 0
-274 269 0
-274 206 0
-274 205 -208 0
-274 -205 208 0
274 -269 205 208 -206 0
274 -269 -205 -208 -206 0
275 272 -203 0
275 -272 203 0
-275 272 203 0
-275 -272 -203 0
276 206 -204 0
276 -206 204 0
-276 206 204 0
-276 -206 -204 0
-277 272 0
-277 204 0
-277 203 -206 0
-277 -203 206 0
277 -272 203 206 -204 0
277 -272 -203 -206 -204 0
278 275 -201 0
278 -275 201 0
-278 275 201 0
-278 -275 -201 0
279 204 -202 0
279 -204 202 0
-279 204 202 0
-279 -204 -202 0
-280 275 0
-280 202 0
-280 201 -204 0
-280 -201 204 0
280 -275 201 204 -202 0
280 -275 -201 -204 -202 0
281 278 -199 0
281 -278 199 0
-281 278 199 0
-281 -278 -199 0
282 202 -200 0
282 -202 200 0
-282 202 200 0
-282 -202 -200 0
-283 278 0
-283 200 0
-283 199 -202 0
-283 -199 202 0
283 -278 199 202 -200 0
283 -278 -199 -202 -200 0
284 281 -197 0
284 -281 197 0
-284 281 197 0
-284 -281 -197 0
285 200 -198 0
285 -200 198 0
-285 200 198 0
-285 -200 -198 0
-286 281 0
-286 198 0
-286 197 -200 0
-286 -197 200 0
286 -281 197 200 -198 0
286 -281 -197 -200 -198 0
287 284 -195 0
287 -284 195 0
-287 284 195 0
-287 -284 -195 0
288 198 -196 0
288 -198 196 0
-288 198 196 0
-288 -198 -196 0
-289 284 0
-289 196 0
-289 195 -198 0
-289 -195 198 0
289 -284 195 198 -196 0
289 -284 -195 -198 -196 0
290 287 -193 0
290 -287 193 0
-290 287 193 0
-290 -287 -193 0
291 196 -194 0
291 -196 194 0
-291 196 194 0
-291 -196 -194 0
-292 287 0
-292 194 0
-292 193 -196 0
-292 -193 196 0
292 -287 193 196 -194 0
292 -287 -193 -196 -194 0
293 290 -191 0
293 -290 191 0
-293 290 191 0
-293 -290 -191 0
294 194 -192 0
294 -194 192 0
-294 194 192 0
-294 -194 -192 0
-295 290 0
-295 192 0
-295 191 -194 0
-295 -191 194 0
295 -290 191 194 -192 0
295 -290 -191 -194 -192 0
296 293 -189 0
296 -293 189 0
-296 293 189 0
-296 -293 -189 0
297 192 -190 0
297 -192 190 0
-297 192 190 0
-297 -192 -190 0
-298 293 0
-298 190 0
-298 189 -192 0
-298 -189 192 0
298 -293 189 192 -190 0
298 -293 -189 -192 -190 0
299 296 -187 0
299 -296 187 0
-299 296 187 0
-299 -296 -187 0
300 190 -188 0
300 -190 188 0
-300 190 188 0
-300 -190 -188 0
-301 296 0
-301 188 0
-301 187 -190 0
-301 -187 190 0
301 -296 187 190 -188 0
301 -296 -187 -190 -188 0
302 299 -185 0
302 -299 185 0
-302 299 185 0
-302 -299 -185 0
303 188 -186 0
303 -188 186 0
-303 188 186 0
-303 -188 -186 0
-304 299 0
-304 186 0
-304 185 -188 0
-304 -185 188 0
304 -299 185 188 -186 0
304 -299 -185 -188 -186 0
305 302 -183 0
305 -302 183 0
-305 302 183 0
-305 -302 -183 0
306 186 -184 0
306 -186 184 0
-306 186 184 0
-306 -186 -184 0
-307 302 0
-307 184 0
-307 183 -186 0
-307 -183 186 0
307 -302 183 186 -184 0
307 -302 -183 -186 -184 0
308 305 -181 0
308 -305 181 0
-308 305 181 0
-308 -305 -181 0
309 184 -182 0
309 -184 182 0
-309 184 182 0
-309 -184 -182 0
-310 305 0
-310 182 0
-310 181 -184 0
-310 -181 184 0
310 -305 181 184 -182 0
310 -305 -181 -184 -182 0
311 308 -179 0
311 -308 179 0
-311 308 179 0
-311 -308 -179 0
312 182 -180 0
312 -182 180 0
-312 182 180 0
-312 -182 -180 0
-313 308 0
-313 180 0
-313 179 -182 0
-313 -179 182 0
313 -308 179 182 -180 0
313 -308 -179 -182 -180 0
314 311 -177 0
314 -311 177 0
-314 311 177 0
-314 -311 -177 0
315 180 -178 0
315 -180 178 0
-315 180 178 0
-315 -180 -178 0
-316 311 0
-316 178 0
-316 177 -180 0
-316 -177 180 0
316 -311 177 180 -178 0
316 -311 -177 -180 -178 0
317 314 -175 0
317 -314 175 0
-317 314 175 0
-317 -314 -175 0
318 178 -176 0
318 -178 176 0
-318 178 176 0
-318 -178 -176 0
-319 314 0
-319 176 0
-319 175 -178 0
-319 -175 178 0
319 -314 175 178 -176 0
319 -314 -175 -178 -176 0
320 317 -173 0
320 -317 173 0
-320 317 173 0
-320 -317 -173 0
321 176 -174 0
321 -176 174 0
-321 176 174 0
-321 -176 -174 0
-322 317 0
-322 174 0
-322 173 -176 0
-322 -173 176 0
322 -317 173 176 -174 0
322 -317 -173 -176 -174 0
323 320 -171 0
323 -320 171 0
-323 320 171 0
-323 -320 -171 0
324 174 -172 0
324 -174 172 0
-324 174 172 0
-324 -174 -172 0
-325 320 0
-325 172 0
-325 171 -174 0
-325 -171 174 0
325 -320 171 174 -172 0
325 -320 -171 -174 -172 0
326 323 -169 0
326 -323 169 0
-326 323 169 0
-326 -323 -169 0
327 172 -170 0
327 -172 170 0
-327 172 170 0
-327 -172 -170 0
-328 323 0
-328 170 0
-328 169 -172 0
-328 -169 172 0
328 -323 169 172 -170 0
328 -323 -169 -172 -170 0
329 326 -167 0
329 -326 167 0
-329 326 167 0
-329 -326 -167 0
330 170 -168 0
330 -170 168 0
-330 170 168 0
-330 -170 -168 0
-331 326 0
-331 168 0
-331 167 -170 0
-331 -167 170 0
331 -326 167 170 -168 0
331 -326 -167 -170 -168 0
332 329 -165 0
332 -329 165 0
-332 329 165 0
-332 -329 -165 0
333 168 -166 0
333 -168 166 0
-333 168 166 0
-333 -168 -166 0
-334 329 0
-334 166 0
-334 165 -168 0
-334 -165 168 0
334 -329 165 168 -166 0
334 -329 -165 -168 -166 0
335 332 -163 0
335 -332 163 0
-335 332 163 0
-335 -332 -163 0
336 166 -164 0
336 -166 164 0
-336 166 164 0
-336 -166 -164 0
-337 332 0
-337 164 0
-337 163 -166 0
-337 -163 166 0
337 -332 163 166 -164 0
337 -332 -163 -166 -164 0
338 335 -161 0
338 -335 161 0
-338 335 161 0
-338 -335 -161 0
339 164 -162 0
339 -164 162 0
-339 164 162 0
-339 -164 -162 0
-340 335 0
-340 162 0
-340 161 -164 0
-340 -161 164 0
340 -335 161 164 -162 0
340 -335 -161 -164 -162 0
341 338 -159 0
341 -338 159 0
-341 338 159 0
-341 -338 -159 0
342 162 -160 0
342 -162 160 0
-342 162 160 0
-342 -162 -160 0
-343 338 0
-343 160 0
-343 159 -162 0
-343 -159 162 0
343 -338 159 162 -160 0
343 -338 -159 -162 -160 0
344 341 -157 0
344 -341 157 0
-344 341 157 0
-344 -341 -157 0
345 160 -158 0
345 -160 158 0
-345 160 158 0
-345 -160 -158 0
-346 341 0
-346 158 0
-346 157 -160 0
-346 -157 160 0
346 -341 157 160 -158 0
346 -341 -157 -160 -158 0
347 344 -155 0
347 -344 155 0
-347 344 155 0
-347 -344 -155 0
348 158 -156 0
348 -158 156 0
-348 158 156 0
-348 -158 -156 0
-349 344 0
-349 156 0
-349 155 -158 0
-349 -155 158 0
349 -344 155 158 -156 0
349 -344 -155 -158 -156 0
350 347 -153 0
350 -347 153 0
-350 347 153 0
-350 -347 -153 0
351 156 -154 0
351 -156 154 0
-351 156 154 0
-351 -156 -154 0
-352 347 0
-352 154 0
-352 153 -156 0
-352 -153 156 0
352 -347 153 156 -154 0
352 -347 -153 -156 -154 0
353 350 -151 0
353 -350 151 0
-353 350 151 0
-353 -350 -151 0
354 154 -152 0
354 -154 152 0
-354 154 152 0
-354 -154 -152 0
-355 350 0
-355 152 0
-355 151 -154 0
-355 -151 154 0
355 -350 151 154 -152 0
355 -350 -151 -154 -152 0
356 353 -149 0
356 -353 149 0
-356 353 149 0
-356 -353 -149 0
357 152 -150 0
357 -152 150 0
-357 152 150 0
-357 -152 -150 0
-358 353 0
-358 150 0
-358 149 -152 0
-358 -149 152 0
358 -353 149 152 -150 0
358 -353 -149 -152 -150 0
359 356 -147 0
359 -356 147 0
-359 356 147 0
-359 -356 -147 0
360 150 -148 0
360 -150 148 0
-360 150 148 0
-360 -150 -148 0
-361 356 0
-361 148 0
-361 147 -150 0
-361 -147 150 0
361 -356 147 150 -148 0
361 -356 -147 -150 -148 0
362 359 -145 0
362 -359 145 0
-362 359 145 0
-362 -359 -145 0
363 148 -146 0
363 -148 146 0
-363 148 146 0
-363 -148 -146 0
-364 359 0
-364 146 0
-364 145 -148 0
-364 -145 148 0
364 -359 145 148 -146 0
364 -359 -145 -148 -146 0
365 362 -143 0
365 -362 143 0
-365 362 143 0
-365 -362 -143 0
366 146 -144 0
366 -146 144 0
-366 146 144 0
-366 -146 -144 0
-367 362 0
-367 144 0
-367 143 -146 0
-367 -143 146 0
367 -362 143 146 -144 0
367 -362 -143 -146 -144 0
368 365 -141 0
368 -365 141 0
-368 365 141 0
-368 -365 -141 0
369 144 -142 0
369 -144 142 0
-369 144 142 0
-369 -144 -142 0
-370 365 0
-370 142 0
-370 141 -144 0
-370 -141 144 0
370 -365 141 144 -142 0
370 -365 -141 -144 -142 0
371 368 -139 0
371 -368 139 0
-371 368 139 0
-371 -368 -139 0
372 142 -140 0
372 -142 140 0
-372 142 140 0
-372 -142 -140 0
-373 368 0
-373 140 0
-373 139 -142 0
-373 -139 142 0
373 -368 139 142 -140 0
373 -368 -139 -142 -140 0
374 371 -137 0
374 -371 137 0
-374 371 137 0
-374 -371 -137 0
375 140 -138 0
375 -140 138 0
-375 140 138 0
-375 -140 -138 0
-376 371 0
-376 138 0
-376 137 -140 0
-376 -137 140 0
376 -371 137 140 -138 0
376 -371 -137 -140 -138 0
377 374 -135 0
377 -374 135 0
-377 374 135 0
-377 -374 -135 0
378 138 -136 0
378 -138 136 0
-378 138 136 0
-378 -138 -136 0
-379 374 0
-379 136 0
-379 135 -138 0
-379 -135 138 0
379 -374 135 138 -136 0
379 -374 -135 -138 -136 0
380 377 -133 0
380 -377 133 0
-380 377 133 0
-380 -377 -133 0
381 136 -134 0
381 -136 134 0
-381 136 134 0
-381 -136 -134 0
-382 377 0
-382 134 0
-382 133 -136 0
-382 -133 136 0
382 -377 133 136 -134 0
382 -377 -133 -136 -134 0
383 380 -131 0
383 -380 131 0
-383 380 131 0
-383 -380 -131 0
384 134 -132 0
384 -134 132 0
-384 134 132 0
-384 -134 -132 0
-385 380 0
-385 132 0
-385 131 -134 0
-385 -131 134 0
385 -380 131 134 -132 0
385 -380 -131 -134 -132 0
386 383 -129 0
386 -383 129 0
-386 383 129 0
-386 -383 -129 0
387 132 -130 0
387 -132 130 0
-387 132 130 0
-387 -132 -130 0
-388 383 0
-388 130 0
-388 129 -132 0
-388 -129 132 0
388 -383 129 132 -130 0
388 -383 -129 -132 -130 0
389 386 -127 0
389 -386 127 0
-389 386 127 0
-389 -386 -127 0
390 130 -128 0
390 -130 128 0
-390 130 128 0
-390 -130 -128 0
-391 386 0
-391 128 0
-391 127 -130 0
-391 -127 130 0
391 -386 127 130 -128 0
391 -386 -127 -130 -128 0
392 389 -125 0
392 -389 125 0
-392 389 125 0
-392 -389 -125 0
393 128 -126 0
393 -128 126 0
-393 128 126 0
-393 -128 -126 0
-394 389 0
-394 126 0
-394 125 -128 0
-394 -125 128 0
394 -389 125 128 -126 0
394 -389 -125 -128 -126 0
395 392 -123 0
395 -392 123 0
-395 392 123 0
-395 -392 -123 0
396 126 -124 0
396 -126 124 0
-396 126 124 0
-396 -126 -124 0
-397 392 0
-397 124 0
-397 123 -126 0
-397 -123 126 0
397 -392 123 126 -124 0
397 -392 -123 -126 -124 0
398 395 -121 0
398 -395 121 0
-398 395 121 0
-398 -395 -121 0
399 124 -122 0
399 -124 122 0
-399 124 122 0
-399 -124 -122 0
-400 395 0
-400 122 0
-400 121 -124 0
-400 -121 124 0
400 -395 121 124 -122 0
400 -395 -121 -124 -122 0
401 398 -119 0
401 -398 119 0
-401 398 119 0
-401 -398 -119 0
402 122 -120 0
402 -122 120 0
-402 122 120 0
-402 -122 -120 0
-403 398 0
-403 120 0
-403 119 -122 0
-403 -119 122 0
403 -398 119 122 -120 0
403 -398 -119 -122 -120 0
404 401 -117 0
404 -401 117 0
-404 401 117 0
-404 -401 -117 0
405 120 -118 0
405 -120 118 0
-405 120 118 0
-405 -120 -118 0
-406 401 0
-406 118 0
-406 117 -120 0
-406 -117 120 0
406 -401 117 120 -118 0
406 -401 -117 -120 -118 0
407 404 -115 0
407 -404 115 0
-407 404 115 0
-407 -404 -115 0
408 118 -116 0
408 -118 116 0
-408 118 116 0
-408 -118 -116 0
-409 404 0
-409 116 0
-409 115 -118 0
-409 -115 118 0
409 -404 115 118 -116 0
409 -404 -115 -118 -116 0
410 407 -113 0
410 -407 113 0
-410 407 113 0
-410 -407 -113 0
411 116 -114 0
411 -116 114 0
-411 116 114 0
-411 -116 -114 0
-412 407 0
-412 114 0
-412 113 -116 0
-412 -113 116 0
412 -407 113 116 -114 0
412 -407 -113 -116 -114 0
413 410 -111 0
413 -410 111 0
-413 410 111 0
-413 -410 -111 0
414 114 -112 0
414 -114 112 0
-414 114 112 0
-414 -114 -112 0
-415 410 0
-415 112 0
-415 111 -114 0
-415 -111 114 0
415 -410 111 114 -112 0
415 -410 -111 -114 -112 0
416 413 -109 0
416 -413 109 0
-416 413 109 0
-416 -413 -109 0
417 112 -110 0
417 -112 110 0
-417 112 110 0
-417 -112 -110 0
-418 413 0
-418 110 0
-418 109 -112 0
-418 -109 112 0
418 -413 109 112 -110 0
418 -413 -109 -112 -110 0
419 416 -107 0
419 -416 107 0
-419 416 107 0
-419 -416 -107 0
420 110 -108 0
420 -110 108 0
-420 110 108 0
-420 -110 -108 0
-421 416 0
-421 108 0
-421 107 -110 0
-421 -107 110 0
421 -416 107 110 -108 0
421 -416 -107 -110 -108 0
422 419 -105 0
422 -419 105 0
-422 419 105 0
-422 -419 -105 0
423 108 -106 0
423 -108 106 0
-423 108 106 0
-423 -108 -106 0
-424 419 0
-424 106 0
-424 105 -108 0
-424 -105 108 0
424 -419 105 108 -106 0
424 -419 -105 -108 -106 0
425 422 -103 0
425 -422 103 0
-425 422 103 0
-425 -422 -103 0
426 106 -104 0
426 -106 104 0
-426 106 104 0
-426 -106 -104 0
-427 422 0
-427 104 0
-427 103 -106 0
-427 -103 106 0
427 -422 103 106 -104 0
427 -422 -103 -106 -104 0
428 425 -101 0
428 -425 101 0
-428 425 101 0
-428 -425 -101 0
429 104 -102 0
429 -104 102 0
-429 104 102 0
-429 -104 -102 0
-430 425 0
-430 102 0
-430 101 -104 0
-430 -101 104 0
430 -425 101 104 -102 0
430 -425 -101 -104 -102 0
431 428 -99 0
431 -428 99 0
-431 428 99 0
-431 -428 -99 0
432 102 -100 0
432 -102 100 0
-432 102 100 0
-432 -102 -100 0
-433 428 0
-433 100 0
-433 99 -102 0
-433 -99 102 0
433 -428 99 102 -100 0
433 -428 -99 -102 -100 0
434 431 -97 0
434 -431 97 0
-434 431 97 0
-434 -431 -97 0
435 100 -98 0
435 -100 98 0
-435 100 98 0
-435 -100 -98 0
-436 431 0
-436 98 0
-436 97 -100 0
-436 -97 100 0
436 -431 97 100 -98 0
436 -431 -97 -100 -98 0
437 434 -95 0
437 -434 95 0
-437 434 95 0
-437 -434 -95 0
438 98 -96 0
438 -98 96 0
-438 98 96 0
-438 -98 -96 0
-439 434 0
-439 96 0
-439 95 -98 0
-439 -95 98 0
439 -434 95 98 -96 0
439 -434 -95 -98 -96 0
440 437 -93 0
440 -437 93 0
-440 437 93 0
-440 -437 -93 0
441 96 -94 0
441 -96 94 0
-441 96 94 0
-441 -96 -94 0
-442 437 0
-442 94 0
-442 93 -96 0
-442 -93 96 0
442 -437 93 96 -94 0
442 -437 -93 -96 -94 0
443 440 -91 0
443 -440 91 0
-443 440 91 0
-443 -440 -91 0
444 94 -92 0
444 -94 92 0
-444 94 92 0
-444 -94 -92 0
-445 440 0
-445 92 0
-445 91 -94 0
-445 -91 94 0
445 -440 91 94 -92 0
445 -440 -91 -94 -92 0
446 443 -89 0
446 -443 89 0
-446 443 89 0
-446 -443 -89 0
447 92 -90 0
447 -92 90 0
-447 92 90 0
-447 -92 -90 0
-448 443 0
-448 90 0
-448 89 -92 0
-448 -89 92 0
448 -443 89 92 -90 0
448 -443 -89 -92 -90 0
449 446 -87 0
449 -446 87 0
-449 446 87 0
-449 -446 -87 0
450 90 -88 0
450 -90 88 0
-450 90 88 0
-450 -90 -88 0
-451 446 0
-451 88 0
-451 87 -90 0
-451 -87 90 0
451 -446 87 90 -88 0
451 -446 -87 -90 -88 0
452 449 -85 0
452 -449 85 0
-452 449 85 0
-452 -449 -85 0
453 88 -86 0
453 -88 86 0
-453 88 86 0
-453 -88 -86 0
-454 449 0
-454 86 0
-454 85 -88 0
-454 -85 88 0
454 -449 85 88 -86 0
454 -449 -85 -88 -86 0
455 452 -83 0
455 -452 83 0
-455 452 83 0
-455 -452 -83 0
456 86 -84 0
456 -86 84 0
-456 86 84 0
-456 -86 -84 0
-457 452 0
-457 84 0
-457 83 -86 0
-457 -83 86 0
457 -452 83 86 -84 0
457 -452 -83 -86 -84 0
458 455 -81 0
458 -455 81 0
-458 455 81 0
-458 -455 -81 0
459 84 -82 0
459 -84 82 0
-459 84 82 0
-459 -84 -82 0
-460 455 0
-460 82 0
-460 81 -84 0
-460 -81 84 0
460 -455 81 84 -82 0
460 -455 -81 -84 -82 0
461 458 -79 0
461 -458 79 0
-461 458 79 0
-461 -458 -79 0
462 82 -80 0
462 -82 80 0
-462 82 80 0
-462 -82 -80 0
-463 458 0
-463 80 0
-463 79 -82 0
-463 -79 82 0
463 -458 79 82 -80 0
463 -458 -79 -82 -80 0
464 461 -77 0
464 -461 77 0
-464 461 77 0
-464 -461 -77 0
465 80 -78 0
465 -80 78 0
-465 80 78 0
-465 -80 -78 0
-466 461 0
-466 78 0
-466 77 -80 0
-466 -77 80 0
466 -461 77 80 -78 0
466 -461 -77 -80 -78 0
467 464 -75 0
467 -464 75 0
-467 464 75 0
-467 -464 -75 0
468 78 -76 0
468 -78 76 0
-468 78 76 0
-468 -78 -76 0
-469 464 0
-469 76 0
-469 75 -78 0
-469 -75 78 0
469 -464 75 78 -76 0
469 -464 -75 -78 -76 0
470 467 -73 0
470 -467 73 0
-470 467 73 0
-470 -467 -73 0
471 76 -74 0
471 -76 74 0
-471 76 74 0
-471 -76 -74 0
-472 467 0
-472 74 0
-472 73 -76 0
-472 -73 76 0
472 -467 73 76 -74 0
472 -467 -73 -76 -74 0
473 470 -71 0
473 -470 71 0
-473 470 71 0
-473 -470 -71 0
474 74 -72 0
474 -74 72 0
-474 74 72 0
-474 -74 -72 0
-475 470 0
-475 72 0
-475 71 -74 0
-475 -71 74 0
475 -470 71 74 -72 0
475 -470 -71 -74 -72 0
476 473 -69 0
476 -473 69 0
-476 473 69 0
-476 -473 -69 0
477 72 -70 0
477 -72 70 0
-477 72 70 0
-477 -72 -70 0
-478 473 0
-478 70 0
-478 69 -72 0
-478 -69 72 0
478 -473 69 72 -70 0
478 -473 -69 -72 -70 0
479 476 -67 0
479 -476 67 0
-479 476 67 0
-479 -476 -67 0
480 70 -68 0
480 -70 68 0
-480 70 68 0
-480 -70 -68 0
-481 476 0
-481 68 0
-481 67 -70 0
-481 -67 70 0
481 -476 67 70 -68 0
481 -476 -67 -70 -68 0
482 479 -65 0
482 -479 65 0
-482 479 65 0
-482 -479 -65 0
483 68 -66 0
483 -68 66 0
-483 68 66 0
-483 -68 -66 0
-484 479 0
-484 66 0
-484 65 -68 0
-484 -65 68 0
484 -479 65 68 -66 0
484 -479 -65 -68 -66 0
485 482 -63 0
485 -482 63 0
-485 482 63 0
-485 -482 -63 0
486 66 -64 0
486 -66 64 0
-486 66 64 0
-486 -66 -64 0
-487 482 0
-487 64 0
-487 63 -66 0
-487 -63 66 0
487 -482 63 66 -64 0
487 -482 -63 -66 -64 0
488 485 -61 0
488 -485 61 0
-488 485 61 0
-488 -485 -61 0
489 64 -62 0
489 -64 62 0
-489 64 62 0
-489 -64 -62 0
-490 485 0
-490 62 0
-490 61 -64 0
-490 -61 64 0
490 -485 61 64 -62 0
490 -485 -61 -64 -62 0
491 488 -59 0
491 -488 59 0
-491 488 59 0
-491 -488 -59 0
492 62 -60 0
492 -62 60 0
-492 62 60 0
-492 -62 -60 0
-493 488 0
-493 60 0
-493 59 -62 0
-493 -59 62 0
493 -488 59 62 -60 0
493 -488 -59 -62 -60 0
494 491 -57 0
494 -491 57 0
-494 491 57 0
-494 -491 -57 0
495 60 -58 0
495 -60 58 0
-495 60 58 0
-495 -60 -58 0
-496 491 0
-496 58 0
-496 57 -60 0
-496 -57 60 0
496 -491 57 60 -58 0
496 -491 -57 -60 -58 0
497 494 -55 0
497 -494 55 0
-497 494 55 0
-497 -494 -55 0
498 58 -56 0
498 -58 56 0
-498 58 56 0
-498 -58 -56 0
-499 494 0
-499 56 0
-499 55 -58 0
-499 -55 58 0
499 -494 55 58 -56 0
499 -494 -55 -58 -56 0
500 497 -53 0
500 -497 53 0
-500 497 53 0
-500 -497 -53 0
501 56 -54 0
501 -56 54 0
-501 56 54 0
-501 -56 -54 0
-502 497 0
-502 54 0
-502 53 -56 0
-502 -53 56 0
502 -497 53 56 -54 0
502 -497 -53 -56 -54 0
503 500 -51 0
503 -500 51 0
-503 500 51 0
-503 -500 -51 0
504 54 -52 0
504 -54 52 0
-504 54 52 0
-504 -54 -52 0
-505 500 0
-505 52 0
-505 51 -54 0
-505 -51 54 0
505 -500 51 54 -52 0
505 -500 -51 -54 -52 0
506 503 -49 0
506 -503 49 0
-506 503 49 0
-506 -503 -49 0
507 52 -50 0
507 -52 50 0
-507 52 50 0
-507 -52 -50 0
-508 503 0
-508 50 0
-508 49 -52 0
-508 -49 52 0
508 -503 49 52 -50 0
508 -503 -49 -52 -50 0
509 506 -47 0
509 -506 47 0
-509 506 47 0
-509 -506 -47 0
510 50 -48 0
510 -50 48 0
-510 50 48 0
-510 -50 -48 0
-511 506 0
-511 48 0
-511 47 -50 0
-511 -47 50 0
511 -506 47 50 -48 0
511 -506 -47 -50 -48 0
512 509 -45 0
512 -509 45 0
-512 509 45 0
-512 -509 -45 0
513 48 -46 0
513 -48 46 0
-513 48 46 0
-513 -48 -46 0
-514 509 0
-514 46 0
-514 45 -48 0
-514 -45 48 0
514 -509 45 48 -46 0
514 -509 -45 -48 -46 0
515 512 -43 0
515 -512 43 0
-515 512 43 0
-515 -512 -43 0
516 46 -44 0
516 -46 44 0
-516 46 44 0
-516 -46 -44 0
-517 512 0
-517 44 0
-517 43 -46 0
-517 -43 46 0
517 -512 43 46 -44 0
517 -512 -43 -46 -44 0
518 515 -41 0
518 -515 41 0
-518 515 41 0
-518 -515 -41 0
519 44 -42 0
519 -44 42 0
-519 44 42 0
-519 -44 -42 0
-520 515 0
-520 42 0
-520 41 -44 0
-520 -41 44 0
520 -515 41 44 -42 0
520 -515 -41 -44 -42 0
521 518 -39 0
521 -518 39 0
-521 518 39 0
-521 -518 -39 0
522 42 -40 0
522 -42 40 0
-522 42 40 0
-522 -42 -40 0
-523 518 0
-523 40 0
-523 39 -42 0
-523 -39 42 0
523 -518 39 42 -40 0
523 -518 -39 -42 -40 0
524 521 -37 0
524 -521 37 0
-524 521 37 0
-524 -521 -37 0
525 40 -38 0
525 -40 38 0
-525 40 38 0
-525 -40 -38 0
-526 521 0
-526 38 0
-526 37 -40 0
-526 -37 40 0
526 -521 37 40 -38 0
526 -521 -37 -40 -38 0
527 524 -35 0
527 -524 35 0
-527 524 35 0
-527 -524 -35 0
528 38 -36 0
528 -38 36 0
-528 38 36 0
-528 -38 -36 0
-529 524 0
-529 36 0
-529 35 -38 0
-529 -35 38 0
529 -524 35 38 -36 0
529 -524 -35 -38 -36 0
530 527 -33 0
530 -527 33 0
-530 527 33 0
-530 -527 -33 0
531 36 -34 0
531 -36 34 0
-531 36 34 0
-531 -36 -34 0
-532 527 0
-532 34 0
-532 33 -36 0
-532 -33 36 0
532 -527 33 36 -34 0
532 -527 -33 -36 -34 0
533 530 -31 0
533 -530 31 0
-533 530 31 0
-533 -530 -31 0
534 34 -32 0
534 -34 32 0
-534 34 32 0
-534 -34 -32 0
-535 530 0
-535 32 0
-535 31 -34 0
-535 -31 34 0
535 -530 31 34 -32 0
535 -530 -31 -34 -32 0
536 533 -29 0
536 -533 29 0
-536 533 29 0
-536 -533 -29 0
537 32 -30 0
537 -32 30 0
-537 32 30 0
-537 -32 -30 0
-538 533 0
-538 30 0
-538 29 -32 0
-538 -29 32 0
538 -533 29 32 -30 0
538 -533 -29 -32 -30 0
539 536 -27 0
539 -536 27 0
-539 536 27 0
-539 -536 -27 0
540 30 -28 0
540 -30 28 0
-540 30 28 0
-540 -30 -28 0
-541 536 0
-541 28 0
-541 27 -30 0
-541 -27 30 0
541 -536 27 30 -28 0
541 -536 -27 -30 -28 0
542 539 -25 0
542 -539 25 0
-542 539 25 0
-542 -539 -25 0
543 28 -26 0
543 -28 26 0
-543 28 26 0
-543 -28 -26 0
-544 539 0
-544 26 0
-544 25 -28 0
-544 -25 28 0
544 -539 25 28 -26 0
544 -539 -25 -28 -26 0
545 542 -23 0
545 -542 23 0
-545 542 23 0
-545 -542 -23 0
546 26 -24 0
546 -26 24 0
-546 26 24 0
-546 -26 -24 0
-547 542 0
-547 24 0
-547 23 -26 0
-547 -23 26 0
547 -542 23 26 -24 0
547 -542 -23 -26 -24 0
548 545 -21 0
548 -545 21 0
-548 545 21 0
-548 -545 -21 0
549 24 -22 0
549 -24 22 0
-549 24 22 0
-549 -24 -22 0
-550 545 0
-550 22 0
-550 21 -24 0
-550 -21 24 0
550 -545 21 24 -22 0
550 -545 -21 -24 -22 0
551 548 -19 0
551 -548 19 0
-551 548 19 0
-551 -548 -19 0
552 22 -20 0
552 -22 20 0
-552 22 20 0
-552 -22 -20 0
-553 548 0
-553 20 0
-553 19 -22 0
-553 -19 22 0
553 -548 19 22 -20 0
553 -548 -19 -22 -20 0
554 551 -17 0
554 -551 17 0
-554 551 17 0
-554 -551 -17 0
555 20 -18 0
555 -20 18 0
-555 20 18 0
-555 -20 -18 0
-556 551 0
-556 18 0
-556 17 -20 0
-556 -17 20 0
556 -551 17 20 -18 0
556 -551 -17 -20 -18 0
557 554 -15 0
557 -554 15 0
-557 554 15 0
-557 -554 -15 0
558 18 -16 0
558 -18 16 0
-558 18 16 0
-558 -18 -16 0
-559 554 0
-559 16 0
-559 15 -18 0
-559 -15 18 0
559 -554 15 18 -16 0
559 -554 -15 -18 -16 0
560 557 -13 0
560 -557 13 0
-560 557 13 0
-560 -557 -13 0
561 16 -14 0
561 -16 14 0
-561 16 14 0
-561 -16 -14 0
-562 557 0
-562 14 0
-562 13 -16 0
-562 -13 16 0
562 -557 13 16 -14 0
562 -557 -13 -16 -14 0
563 560 -11 0
563 -560 11 0
-563 560 11 0
-563 -560 -11 0
564 14 -12 0
564 -14 12 0
-564 14 12 0
-564 -14 -12 0
-565 560 0
-565 12 0
-565 11 -14 0
-565 -11 14 0
565 -560 11 14 -12 0
565 -560 -11 -14 -12 0
566 563 -9 0
566 -563 9 0
-566 563 9 0
-566 -563 -9 0
567 12 -10 0
567 -12 10 0
-567 12 10 0
-567 -12 -10 0
-568 563 0
-568 10 0
-568 9 -12 0
-568 -9 12 0
568 -563 9 12 -10 0
568 -563 -9 -12 -10 0
569 566 -7 0
569 -566 7 0
-569 566 7 0
-569 -566 -7 0
570 10 -8 0
570 -10 8 0
-570 10 8 0
-570 -10 -8 0
-571 566 0
-571 8 0
-571 7 -10 0
-571 -7 10 0
571 -566 7 10 -8 0
571 -566 -7 -10 -8 0
572 569 -5 0
572 -569 5 0
-572 569 5 0
-572 -569 -5 0
573 8 -6 0
573 -8 6 0
-573 8 6 0
-573 -8 -6 0
-574 569 0
-574 6 0
-574 5 -8 0
-574 -5 8 0
574 -569 5 8 -6 0
574 -569 -5 -8 -6 0
575 572 -3 0
575 -572 3 0
-575 572 3 0
-575 -572 -3 0
576 6 -4 0
576 -6 4 0
-576 6 4 0
-576 -6 -4 0
-577 572 0
-577 4 0
-577 3 -6 0
-577 -3 6 0
577 -572 3 6 -4 0
577 -572 -3 -6 -4 0
578 575 -1 0
578 -575 1 0
-578 575 1 0
-578 -575 -1 0
579 4 -2 0
579 -4 2 0
-579 4 2 0
-579 -4 -2 0
-580 575 0
-580 2 0
-580 1 -4 0
-580 -1 4 0
580 -575 1 4 -2 0
580 -575 -1 -4 -2 0
-578 0
-575 0
-579 0
-572 0
-576 0
-569 0
-573 0
-566 0
-570 0
-563 0
-567 0
-560 0
-564 0
-557 0
-561 0
-554 0
-558 0
-551 0
-555 0
-548 0
-552 0
-545 0
-549 0
-542 0
-546 0
-539 0
-543 0
-536 0
-540 0
-533 0
-537 0
-530 0
-534 0
-527 0
-531 0
-524 0
-528 0
-521 0
-525 0
-518 0
-522 0
-515 0
-519 0
-512 0
-516 0
-509 0
-513 0
-506 0
-510 0
-503 0
-507 0
-500 0
-504 0
-497 0
-501 0
-494 0
-498 0
-491 0
-495 0
-488 0
-492 0
-485 0
-489 0
-482 0
-486 0
-479 0
-483 0
-476 0
-480 0
-473 0
-477 0
-470 0
-474 0
-467 0
-471 0
-464 0
-468 0
-461 0
-465 0
-458 0
-462 0
-455 0
-459 0
-452 0
-456 0
-449 0
-453 0
-446 0
-450 0
-443 0
-447 0
-440 0
-444 0
-437 0
-441 0
-434 0
-438 0
-431 0
-435 0
-428 0
-432 0
-425 0
-429 0
-422 0
-426 0
-419 0
-423 0
-416 0
-420 0
-413 0
-417 0
-410 0
-414 0
-407 0
-411 0
-404 0
-408 0
-401 0
-405 0
-398 0
-402 0
-395 0
-399 0
-392 0
-396 0
-389 0
-393 0
-386 0
-390 0
-383 0
-387 0
-380 0
-384 0
-377 0
-381 0
-374 0
-378 0
-371 0
-375 0
-368 0
-372 0
-365 0
-369 0
-362 0
-366 0
-359 0
-363 0
-356 0
-360 0
-353 0
-357 0
-350 0
-354 0
-347 0
-351 0
-344 0
-348 0
-341 0
-345 0
-338 0
-342 0
-335 0
-339 0
-332 0
-336 0
-329 0
-333 0
-326 0
-330 0
-323 0
-327 0
-320 0
-324 0
-317 0
-321 0
-314 0
-318 0
-311 0
-315 0
-308 0
-312 0
-305 0
-309 0
-302 0
-306 0
-299 0
-303 0
-296 0
-300 0
-293 0
-297 0
-290 0
-294 0
-287 0
-291 0
-284 0
-288 0
-281 0
-285 0
-278 0
-282 0
-275 0
-279 0
-272 0
-276 0
-269 0
-273 0
-266 0
-270 0
-263 0
-267 0
-260 0
-264 0
-257 0
-261 0
-254 0
-258 0
-251 0
-255 0
-248 0
-252 0
-245 0
-249 0
-242 0
-246 0
-239 0
-243 0
-233 0
-240 0
